(set-logic HORN)
(declare-fun inv ((_ BitVec 64) ) Bool)
(assert (forall ((x (_ BitVec 64))) 
       (=> ( = x #x00000000 ) (inv x))))
(assert (forall ((x (_ BitVec 64)) (x! (_ BitVec 64))) 
       (=> (and (inv x) ( and ( bvult x #x0fffffff ) ( = x! ( bvadd x #x00000002 ) ) )) (inv x!))))
(assert (forall ((x (_ BitVec 64))) 
       (=> (inv x) ( or ( = #x00000000 ( bvurem x #x00000002 ) ) ( bvult x #x0fffffff ) ))))
(check-sat)
